c This is QMaxSAT 2017 based on 14.07
c This is Glucose 3.0
c This is MiniSat 2.2.0
c WARNING: for repeatability, setting FPU to use double precision
c card = mrwto, comp = 0, pmodel = 0, narr = 3, mct = 52, verb = 0
cr firstCPXsol 0 0 0
c top = 1525567
c |  Number of variables:    5832                                             |
c |  Number of clauses:      293460                                           |
c |  Weight of hard clauses: 1525567                                          |
c |  Number of soft clauses: 8568                                             |
c |  Number of unit soft clauses: 0                                           |
c |  Maximum Cardinality (by unit): 4835454      (0           )               |
c last restart ## conflicts  :  0 1435 
o 16520 | cpuTime 0.407199 s
c Sum of weights = 1611818
c A number of soft clauses remained = 2856
c MRWTO encoding for Pseudo-Boolean Constraints
c sizeMax=16520
c No.0 Divisor=12	generated by pow1
c No.1 Divisor=12	generated by pow1
c No.2 Divisor=12	generated by pow1
c No.3 Divisor=12	generated by pow1
c p0= 12	p1= 12	p2= 12	p3= 12	
c number of digits = 5
c linkingVar[0].size = 12, linkingVar[1].size = 12, linkingVar[2].size = 12, linkingVar[3].size = 10, linkingVar[4].size = 1, 
c Pseudo-Boolean Constraints: 86023 variables and 904139 clauses
c Sum of weights = 1611818
c A number of soft clauses remained = 2856
c MRWTO encoding for Pseudo-Boolean Constraints
c sizeMax=16520
c No.0 Divisor=12	generated by pow1
c No.1 Divisor=12	generated by pow1
c No.2 Divisor=12	generated by pow1
c No.3 Divisor=12	generated by pow1
c p0= 12	p1= 12	p2= 12	p3= 12	
c number of digits = 5
c linkingVar[0].size = 12, linkingVar[1].size = 12, linkingVar[2].size = 12, linkingVar[3].size = 10, linkingVar[4].size = 1, 
c Pseudo-Boolean Constraints: 86023 variables and 904139 clauses
c Sum of weights = 1611818
c A number of soft clauses remained = 2856
c MRWTO encoding for Pseudo-Boolean Constraints
c sizeMax=16520
c No.0 Divisor=12	generated by pow1
c No.1 Divisor=12	generated by pow1
c No.2 Divisor=12	generated by pow1
c No.3 Divisor=12	generated by pow1
c p0= 12	p1= 12	p2= 12	p3= 12	
c number of digits = 5
c linkingVar[0].size = 12, linkingVar[1].size = 12, linkingVar[2].size = 12, linkingVar[3].size = 10, linkingVar[4].size = 1, 
c Pseudo-Boolean Constraints: 86023 variables and 904139 clauses
c last restart ## conflicts  :  505 7858 
o 15893 | cpuTime 2.02335 s
c last restart ## conflicts  :  1011 7946 
o 15620 | cpuTime 211.781 s
c last restart ## conflicts  :  1585 6195 
o 14387 | cpuTime 421.027 s
c last restart ## conflicts  :  8109 4226 
o 12961 | cpuTime 423.383 s
c last restart ## conflicts  :  509 4698 
o 11229 | cpuTime 427.69 s
c last restart ## conflicts  :  2729 4509 
o 11084 | cpuTime 445.7 s
c last restart ## conflicts  :  609 4914 
o 8618 | cpuTime 452.64 s
c last restart ## conflicts  :  2135 5532 
o 7527 | cpuTime 478.559 s
c last restart ## conflicts  :  872 3779 
o 7213 | cpuTime 479.425 s
c last restart ## conflicts  :  292 2836 
o 6869 | cpuTime 1600.8 s
c last restart ## conflicts  :  702 3222 
o 6719 | cpuTime 3232.87 s
s UNKNOWN
c Search is stopped by a limit (maybe time-limit)
cr positiVarArr: [ | 45(1->43) | 105(1->49) | 132(1->22) | 181(2->17) | 248(3->30) | 287(4->15) | 367(5->41) | 381(6->1) | 455(7->21) | 534(8->46) | 575(9->33) | 605(10->9) | 701(11->51) | 741(12->37) | 810(13->52) | 825(14->13) | 890(15->24) | 945(16->25) | 1019(17->45) | 1051(18->23) | 1084(19->2) | 1183(20->47) | 1208(21->18) | 1251(22->7) | 1327(23->29) | 1402(24->50) | 1414(25->8) | 1465(26->5) | 1542(27->28) | 1580(28->12) | 1666(29->44) | 1707(30->31) | 1729(31->1) | 1832(32->48) | 1864(33->26) | 1927(34->35) | 1982(35->36) | 2004(36->4) | 2094(37->40) | 2147(38->39) | 2162(39->1) | 2254(40->38) | 2312(41->42) | 2327(42->3) | 2397(43->19) | 2466(44->34) | 2497(45->11) | 2546(46->6) | 2608(47->14) | 2658(48->10) | 2734(49->32) | 2776(50->20) | 2826(51->16) | 2891(52->27) | ]
cr the 1-th chain: [ 1->43->19->2->17->45->11->51->16->25->8->46->6->1 ] (#non-depot=12) {#cumul.=13}
cr the 2-th chain: [ 1->49->32->48->10->9->33->26->5->41->42->3->30->31->1 ] (#non-depot=13) {#cumul.=26}
cr the 3-th chain: [ 1->22->7->21->18->23->29->44->34->35->36->4->15->24->50->20->47->14->13->52->27->28->12->37->40->38->39->1 ] (#non-depot=26) {#cumul.=52}
c Latest Answer = 0 by 12 loops
c restarts              : 20969
c conflicts             : 13830553       (3851 /sec)
c decisions             : 65542638       (0.00 % random) (18249 /sec)
c propagations          : 20962516834    (5836625 /sec)
c conflict literals     : 3092863639     (16.98 % deleted)
c Memory used           : 866.00 MB
c CPU time              : 3591.55 s
